; Constant function: f(nil)=42, forall x. f(cons(0,x))=f(x)
; Expected: SAT (f is constantly 42)
(declare-datatypes ((MyList 0)) (((nil) (cons (head Int) (tail MyList)))))
(declare-fun f (MyList) Int)
(assert (= (f nil) 42))
(assert (forall ((x MyList)) (= (f (cons 0 x)) (f x))))
(check-sat)
